\ENCODING=ISO-8859-1
\Problem name: ilog.cplex

Minimize
 obj1: 98462 x1 + 91890 x2 + 95440 x3 + 106427 x4 + 96843 x5 + 106540 x6
       + 92047 x7 + 100168 x8 + 104462 x9 + 99169 x10 + 90011 x11 + 105502 x12
       + 96525 x13 + 107113 x14 + 95179 x15 + 98228 x16 + 98100 x17 + 95224 x18
       + 101024 x19 + 91573 x20 + 108867 x21 + 107908 x22 + 103178 x23
       + 98582 x24 + 101748 x25 + 99231 x26 + 95701 x27 + 103830 x28
       + 91833 x29 + 90439 x30 + 97015 x31 + 105678 x32 + 96447 x33 + 95655 x34
       + 103126 x35 + 99547 x36 + 107195 x37 + 108585 x38 + 101113 x39
       + 92547 x40 + 90466 x41 + 95728 x42 + 96798 x43 + 90271 x44 + 104177 x45
       + 94890 x46 + 97092 x47 + 97696 x48 + 105387 x49 + 91724 x50
       + 101580 x51 + 101034 x52 + 94387 x53 + 91661 x54 + 99111 x55
       + 95374 x56 + 96747 x57 + 93565 x58 + 93882 x59 + 109970 x60 + 91138 x61
       + 90599 x62 + 106676 x63 + 92258 x64 + 93602 x65 + 106384 x66
       + 98212 x67 + 108284 x68 + 107282 x69 + 104729 x70 + 99680 x71
       + 96087 x72 + 100983 x73 + 104117 x74 + 92817 x75 + 109747 x76
       + 92394 x77 + 103503 x78 + 106128 x79 + 106966 x80 + 106043 x81
       + 99265 x82 + 93452 x83 + 95882 x84 + 103432 x85 + 96273 x86
       + 101237 x87 + 105268 x88 + 100779 x89 + 94812 x90 + 91657 x91
       + 96358 x92 + 98409 x93 + 109523 x94 + 90181 x95 + 94244 x96
       + 105089 x97 + 106486 x98 + 108225 x99 + 102119 x100 + 92602 x101
       + 98992 x102 + 94070 x103 + 109440 x104 + 106958 x105 + 90899 x106
       + 102685 x107 + 90004 x108 + 95245 x109 + 95321 x110 + 91205 x111
       + 98649 x112 + 98226 x113 + 95807 x114 + 109641 x115 + 98037 x116
       + 105380 x117 + 109224 x118 + 108148 x119 + 100762 x120 + 102387 x121
       + 93777 x122 + 96539 x123 + 98851 x124 + 106199 x125 + 105799 x126
       + 106932 x127 + 102247 x128 + 96127 x129 + 99855 x130 + 98972 x131
       + 103503 x132 + 105333 x133 + 92203 x134 + 93378 x135 + 94202 x136
       + 98704 x137 + 103773 x138 + 101411 x139 + 107543 x140 + 90282 x141
       + 105540 x142 + 95427 x143 + 91091 x144 + 106264 x145 + 106555 x146
       + 98794 x147 + 103859 x148 + 98036 x149 + 92880 x150 + 104271 x151
       + 97980 x152 + 94403 x153 + 107064 x154 + 104718 x155 + 103424 x156
       + 101921 x157 + 95505 x158 + 102787 x159 + 101019 x160 + 105905 x161
       + 104903 x162 + 108218 x163 + 93171 x164 + 95904 x165 + 99117 x166
       + 92332 x167 + 97192 x168 + 99636 x169 + 109534 x170 + 91554 x171
       + 108184 x172 + 93199 x173 + 95126 x174 + 95700 x175 + 95777 x176
       + 90307 x177 + 107748 x178 + 95690 x179 + 94442 x180 + 104437 x181
       + 106377 x182 + 108935 x183 + 96490 x184 + 94173 x185 + 98712 x186
       + 94916 x187 + 101873 x188 + 99125 x189 + 108877 x190 + 98305 x191
       + 99561 x192 + 91425 x193 + 95932 x194 + 92479 x195 + 91543 x196
       + 106158 x197 + 99474 x198 + 102413 x199 + 102382 x200 + 104772 x201
       + 90603 x202 + 91115 x203 + 93261 x204 + 94708 x205 + 106571 x206
       + 106082 x207 + 95383 x208 + 108635 x209 + 104346 x210 + 101384 x211
       + 95095 x212 + 109331 x213 + 102697 x214 + 92067 x215 + 105446 x216
       + 97314 x217 + 93168 x218 + 105031 x219 + 104870 x220 + 90206 x221
       + 104734 x222 + 104395 x223 + 91417 x224 + 93733 x225 + 107848 x226
       + 106179 x227 + 103149 x228 + 104974 x229 + 94051 x230 + 95952 x231
       + 96815 x232 + 100950 x233 + 91850 x234 + 90940 x235 + 109274 x236
       + 93826 x237 + 104756 x238 + 101517 x239 + 109125 x240 + 97739 x241
       + 103182 x242 + 106107 x243 + 99631 x244 + 91675 x245 + 108294 x246
       + 98216 x247 + 98234 x248 + 97838 x249 + 93008 x250 + 92959 x251
       + 109994 x252 + 100590 x253 + 97294 x254 + 108586 x255 + 103759 x256
       + 90734 x257 + 94399 x258 + 108407 x259 + 94319 x260 + 100392 x261
       + 99370 x262 + 93107 x263 + 105958 x264 + 108811 x265 + 102540 x266
       + 90223 x267 + 94313 x268 + 104155 x269 + 91469 x270 + 100028 x271
       + 99311 x272 + 95244 x273 + 104916 x274 + 104646 x275 + 104520 x276
       + 109978 x277 + 93516 x278 + 104453 x279 + 97094 x280 + 102023 x281
       + 104901 x282 + 98521 x283 + 103512 x284 + 97833 x285 + 102272 x286
       + 99165 x287 + 102845 x288 + 97195 x289 + 92333 x290 + 104546 x291
       + 91528 x292 + 92208 x293 + 101005 x294 + 107874 x295 + 91415 x296
       + 92000 x297 + 93484 x298 + 96909 x299 + 96370 x300 + 101742 x301
       + 101728 x302 + 109960 x303 + 97385 x304 + 95731 x305 + 99040 x306
       + 90325 x307 + 102368 x308 + 92050 x309 + 104121 x310 + 108480 x311
       + 96963 x312 + 109182 x313 + 101399 x314 + 106383 x315 + 97023 x316
       + 93165 x317 + 104158 x318 + 108492 x319 + 103102 x320 + 98006 x321
       + 93106 x322 + 101567 x323 + 101686 x324 + 100675 x325 + 99045 x326
       + 99564 x327 + 107670 x328 + 96096 x329 + 96302 x330 + 96623 x331
       + 106480 x332 + 91608 x333 + 102237 x334 + 105532 x335 + 95666 x336
       + 100103 x337 + 97340 x338 + 109074 x339 + 107884 x340 + 96356 x341
       + 90327 x342 + 97322 x343 + 99782 x344 + 92049 x345 + 93106 x346
       + 105185 x347 + 94694 x348 + 101532 x349 + 101623 x350 + 100310 x351
       + 92940 x352 + 91821 x353 + 104469 x354 + 100242 x355 + 96011 x356
       + 99607 x357 + 108264 x358 + 104090 x359 + 90461 x360 + 99519 x361
       + 105071 x362 + 104556 x363 + 91475 x364 + 108761 x365 + 100503 x366
       + 107253 x367 + 109327 x368 + 90606 x369 + 105701 x370 + 103806 x371
       + 97651 x372 + 102265 x373 + 90335 x374 + 106480 x375 + 97258 x376
       + 93268 x377 + 94828 x378 + 91729 x379 + 104362 x380 + 100053 x381
       + 96251 x382 + 106817 x383 + 109605 x384 + 92010 x385 + 95127 x386
       + 91005 x387 + 107432 x388 + 94397 x389 + 108882 x390 + 90798 x391
       + 104102 x392 + 104349 x393 + 101734 x394 + 107371 x395 + 97053 x396
       + 107629 x397 + 90530 x398 + 103501 x399 + 98334 x400 + 90467 x401
       + 96317 x402 + 92796 x403 + 99899 x404 + 94378 x405 + 100847 x406
       + 107998 x407 + 97525 x408 + 95923 x409 + 92016 x410 + 90492 x411
       + 105799 x412 + 100061 x413 + 102140 x414 + 95816 x415 + 91877 x416
       + 99857 x417 + 93631 x418 + 95050 x419 + 108723 x420 + 101297 x421
       + 106064 x422 + 95129 x423 + 91538 x424 + 94246 x425 + 91506 x426
       + 95623 x427 + 100049 x428 + 104952 x429 + 96685 x430 + 101965 x431
       + 95258 x432 + 106096 x433 + 108294 x434 + 101093 x435 + 94740 x436
       + 96691 x437 + 96005 x438 + 97035 x439 + 96741 x440 + 96010 x441
       + 106696 x442 + 101175 x443 + 99988 x444 + 103254 x445 + 102965 x446
       + 94782 x447 + 93560 x448 + 97796 x449 + 99139 x450 + 108828 x451
       + 108206 x452 + 96351 x453 + 96059 x454 + 99485 x455 + 99178 x456
       + 102000 x457 + 98576 x458 + 91475 x459 + 100184 x460 + 102133 x461
       + 103743 x462 + 101836 x463 + 97153 x464 + 98522 x465 + 92892 x466
       + 96237 x467 + 96969 x468 + 100555 x469 + 106562 x470 + 96520 x471
       + 107028 x472 + 96080 x473 + 90006 x474 + 95810 x475 + 104586 x476
       + 106923 x477 + 106283 x478 + 98328 x479 + 92097 x480 + 107783 x481
       + 103207 x482 + 106836 x483 + 93823 x484 + 100815 x485 + 99814 x486
       + 107097 x487 + 93658 x488 + 102488 x489 + 93056 x490 + 105748 x491
       + 104519 x492 + 94125 x493 + 96037 x494 + 105699 x495 + 95527 x496
       + 93050 x497 + 105398 x498 + 91428 x499 + 327711 x500 + 38359 x501
       + 39354 x502 + 38189 x503 + 37646 x504 + 39892 x505 + 40282 x506
       + 39120 x507 + 42443 x508 + 41085 x509 + 40628 x510 + 41913 x511
       + 40358 x512 + 39787 x513 + 39002 x514 + 42771 x515 + 42791 x516
       + 37491 x517 + 36681 x518 + 36183 x519 + 40344 x520 + 42429 x521
       + 42742 x522 + 42051 x523 + 38230 x524 + 39517 x525 + 43171 x526
       + 38262 x527 + 37176 x528 + 36722 x529 + 42259 x530 + 39924 x531
       + 42759 x532 + 38910 x533 + 38492 x534 + 41309 x535 + 38335 x536
       + 42409 x537 + 37788 x538 + 36127 x539 + 39778 x540 + 38460 x541
       + 38296 x542 + 40059 x543 + 39949 x544 + 41451 x545 + 39107 x546
       + 36559 x547 + 39357 x548 + 38234 x549 + 55819 x550
Subject To
 c1:   - x1 + x6 - x7 + x14 + x24 - x34 + x47  = -1
 c2:   - x51 + x56 - x57 + x64 + x74 - x84 + x97  = 0
 c3:   - x101 + x106 - x107 + x114 + x124 - x134 + x147  = 1
 c4:   - x151 + x156 - x157 + x164 + x174 - x184 + x197  = 0
 c5:   - x201 + x206 - x207 + x214 + x224 - x234 + x247  = 0
 c6:   - x251 + x256 - x257 + x264 + x274 - x284 + x297  = 0
 c7:   - x301 + x306 - x307 + x314 + x324 - x334 + x347  = 0
 c8:   - x351 + x356 - x357 + x364 + x374 - x384 + x397  = 1
 c9:   - x401 + x406 - x407 + x414 + x424 - x434 + x447  = 0
 c10:  - x451 + x456 - x457 + x464 + x474 - x484 + x497  = 0
 c11:  - x2 + x3 + x12 - x14 - x21 + x31 + x41 - x43 - x44  = 0
 c12:  - x52 + x53 + x62 - x64 - x71 + x81 + x91 - x93 - x94  = 0
 c13:  - x102 + x103 + x112 - x114 - x121 + x131 + x141 - x143 - x144  = 0
 c14:  - x152 + x153 + x162 - x164 - x171 + x181 + x191 - x193 - x194  = 0
 c15:  - x202 + x203 + x212 - x214 - x221 + x231 + x241 - x243 - x244  = 0
 c16:  - x252 + x253 + x262 - x264 - x271 + x281 + x291 - x293 - x294  = 0
 c17:  - x302 + x303 + x312 - x314 - x321 + x331 + x341 - x343 - x344  = 0
 c18:  - x352 + x353 + x362 - x364 - x371 + x381 + x391 - x393 - x394  = -1
 c19:  - x402 + x403 + x412 - x414 - x421 + x431 + x441 - x443 - x444  = 0
 c20:  - x452 + x453 + x462 - x464 - x471 + x481 + x491 - x493 - x494  = 0
 c21:  - x3 + x10 + x28 - x35 - x36 - x42 + x49 + x50  = 0
 c22:  - x53 + x60 + x78 - x85 - x86 - x92 + x99 + x100  = 0
 c23:  - x103 + x110 + x128 - x135 - x136 - x142 + x149 + x150  = 0
 c24:  - x153 + x160 + x178 - x185 - x186 - x192 + x199 + x200  = -1
 c25:  - x203 + x210 + x228 - x235 - x236 - x242 + x249 + x250  = 0
 c26:  - x253 + x260 + x278 - x285 - x286 - x292 + x299 + x300  = 1
 c27:  - x303 + x310 + x328 - x335 - x336 - x342 + x349 + x350  = -1
 c28:  - x353 + x360 + x378 - x385 - x386 - x392 + x399 + x400  = 0
 c29:  - x403 + x410 + x428 - x435 - x436 - x442 + x449 + x450  = 0
 c30:  - x453 + x460 + x478 - x485 - x486 - x492 + x499 + x500  = -1
 c31:  x4 + x7 - x8 - x28 + x37  = 0
 c32:  x54 + x57 - x58 - x78 + x87  = 0
 c33:  x104 + x107 - x108 - x128 + x137  = -1
 c34:  x154 + x157 - x158 - x178 + x187  = 0
 c35:  x204 + x207 - x208 - x228 + x237  = 0
 c36:  x254 + x257 - x258 - x278 + x287  = 0
 c37:  x304 + x307 - x308 - x328 + x337  = 0
 c38:  x354 + x357 - x358 - x378 + x387  = 0
 c39:  x404 + x407 - x408 - x428 + x437  = 0
 c40:  x454 + x457 - x458 - x478 + x487  = 0
 c41:  x11 - x15 + x25 - x30 - x38 + x39 - x47 + x48  = 0
 c42:  x61 - x65 + x75 - x80 - x88 + x89 - x97 + x98  = 0
 c43:  x111 - x115 + x125 - x130 - x138 + x139 - x147 + x148  = 0
 c44:  x161 - x165 + x175 - x180 - x188 + x189 - x197 + x198  = 0
 c45:  x211 - x215 + x225 - x230 - x238 + x239 - x247 + x248  = 0
 c46:  x261 - x265 + x275 - x280 - x288 + x289 - x297 + x298  = 0
 c47:  x311 - x315 + x325 - x330 - x338 + x339 - x347 + x348  = 0
 c48:  x361 - x365 + x375 - x380 - x388 + x389 - x397 + x398  = 0
 c49:  x411 - x415 + x425 - x430 - x438 + x439 - x447 + x448  = 0
 c50:  x461 - x465 + x475 - x480 - x488 + x489 - x497 + x498  = 0
 c51:  - x10 + x13 - x18 + x20 - x27 + x33 + x34 - x46 - x48  = 0
 c52:  - x60 + x63 - x68 + x70 - x77 + x83 + x84 - x96 - x98  = 0
 c53:  - x110 + x113 - x118 + x120 - x127 + x133 + x134 - x146 - x148  = 0
 c54:  - x160 + x163 - x168 + x170 - x177 + x183 + x184 - x196 - x198  = 0
 c55:  - x210 + x213 - x218 + x220 - x227 + x233 + x234 - x246 - x248  = 0
 c56:  - x260 + x263 - x268 + x270 - x277 + x283 + x284 - x296 - x298  = 0
 c57:  - x310 + x313 - x318 + x320 - x327 + x333 + x334 - x346 - x348  = 0
 c58:  - x360 + x363 - x368 + x370 - x377 + x383 + x384 - x396 - x398  = 0
 c59:  - x410 + x413 - x418 + x420 - x427 + x433 + x434 - x446 - x448  = -1
 c60:  - x460 + x463 - x468 + x470 - x477 + x483 + x484 - x496 - x498  = 0
 c61:  x16 - x37 + x46 - x50  = 0
 c62:  x66 - x87 + x96 - x100  = 0
 c63:  x116 - x137 + x146 - x150  = 0
 c64:  x166 - x187 + x196 - x200  = 0
 c65:  x216 - x237 + x246 - x250  = 0
 c66:  x266 - x287 + x296 - x300  = 0
 c67:  x316 - x337 + x346 - x350  = 0
 c68:  x366 - x387 + x396 - x400  = 0
 c69:  x416 - x437 + x446 - x450  = 0
 c70:  x466 - x487 + x496 - x500  = 0
 c71:  x1 + x23 - x29 - x33 + x36 - x39  = 0
 c72:  x51 + x73 - x79 - x83 + x86 - x89  = 0
 c73:  x101 + x123 - x129 - x133 + x136 - x139  = 0
 c74:  x151 + x173 - x179 - x183 + x186 - x189  = 0
 c75:  x201 + x223 - x229 - x233 + x236 - x239  = 0
 c76:  x251 + x273 - x279 - x283 + x286 - x289  = 0
 c77:  x301 + x323 - x329 - x333 + x336 - x339  = 0
 c78:  x351 + x373 - x379 - x383 + x386 - x389  = 0
 c79:  x401 + x423 - x429 - x433 + x436 - x439  = 0
 c80:  x451 + x473 - x479 - x483 + x486 - x489  = 0
 c81:  - x13 - x16 + x19 + x21 + x27  = 0
 c82:  - x63 - x66 + x69 + x71 + x77  = 0
 c83:  - x113 - x116 + x119 + x121 + x127  = 0
 c84:  - x163 - x166 + x169 + x171 + x177  = 0
 c85:  - x213 - x216 + x219 + x221 + x227  = 0
 c86:  - x263 - x266 + x269 + x271 + x277  = 0
 c87:  - x313 - x316 + x319 + x321 + x327  = 0
 c88:  - x363 - x366 + x369 + x371 + x377  = 0
 c89:  - x413 - x416 + x419 + x421 + x427  = 1
 c90:  - x463 - x466 + x469 + x471 + x477  = 0
 c91:  - x12 - x17 + x26 + x45  = 0
 c92:  - x62 - x67 + x76 + x95  = 0
 c93:  - x112 - x117 + x126 + x145  = 0
 c94:  - x162 - x167 + x176 + x195  = 1
 c95:  - x212 - x217 + x226 + x245  = -1
 c96:  - x262 - x267 + x276 + x295  = 0
 c97:  - x312 - x317 + x326 + x345  = 0
 c98:  - x362 - x367 + x376 + x395  = 0
 c99:  - x412 - x417 + x426 + x445  = 0
 c100: - x462 - x467 + x476 + x495  = 0
 c101: - x5 + x18 - x20 - x32 + x44  = 0
 c102: - x55 + x68 - x70 - x82 + x94  = 0
 c103: - x105 + x118 - x120 - x132 + x144  = 0
 c104: - x155 + x168 - x170 - x182 + x194  = 0
 c105: - x205 + x218 - x220 - x232 + x244  = 0
 c106: - x255 + x268 - x270 - x282 + x294  = 0
 c107: - x305 + x318 - x320 - x332 + x344  = 0
 c108: - x355 + x368 - x370 - x382 + x394  = 0
 c109: - x405 + x418 - x420 - x432 + x444  = 0
 c110: - x455 + x468 - x470 - x482 + x494  = 0
 c111: x5 - x9 + x15 - x24 - x26 + x40  = 1
 c112: x55 - x59 + x65 - x74 - x76 + x90  = -1
 c113: x105 - x109 + x115 - x124 - x126 + x140  = 0
 c114: x155 - x159 + x165 - x174 - x176 + x190  = 0
 c115: x205 - x209 + x215 - x224 - x226 + x240  = 1
 c116: x255 - x259 + x265 - x274 - x276 + x290  = -1
 c117: x305 - x309 + x315 - x324 - x326 + x340  = 0
 c118: x355 - x359 + x365 - x374 - x376 + x390  = 0
 c119: x405 - x409 + x415 - x424 - x426 + x440  = 0
 c120: x455 - x459 + x465 - x474 - x476 + x490  = 0
 c121: - x11 - x22 + x32 + x35 - x41 - x45  = 0
 c122: - x61 - x72 + x82 + x85 - x91 - x95  = 0
 c123: - x111 - x122 + x132 + x135 - x141 - x145  = 0
 c124: - x161 - x172 + x182 + x185 - x191 - x195  = 0
 c125: - x211 - x222 + x232 + x235 - x241 - x245  = 0
 c126: - x261 - x272 + x282 + x285 - x291 - x295  = 0
 c127: - x311 - x322 + x332 + x335 - x341 - x345  = 0
 c128: - x361 - x372 + x382 + x385 - x391 - x395  = 0
 c129: - x411 - x422 + x432 + x435 - x441 - x445  = 0
 c130: - x461 - x472 + x482 + x485 - x491 - x495  = 0
 c131: x8 + x9 + x17 - x19 + x30 + x42 + x43 - x49  = 0
 c132: x58 + x59 + x67 - x69 + x80 + x92 + x93 - x99  = 1
 c133: x108 + x109 + x117 - x119 + x130 + x142 + x143 - x149  = 0
 c134: x158 + x159 + x167 - x169 + x180 + x192 + x193 - x199  = 0
 c135: x208 + x209 + x217 - x219 + x230 + x242 + x243 - x249  = 0
 c136: x258 + x259 + x267 - x269 + x280 + x292 + x293 - x299  = 0
 c137: x308 + x309 + x317 - x319 + x330 + x342 + x343 - x349  = 0
 c138: x358 + x359 + x367 - x369 + x380 + x392 + x393 - x399  = 0
 c139: x408 + x409 + x417 - x419 + x430 + x442 + x443 - x449  = 0
 c140: x458 + x459 + x467 - x469 + x480 + x492 + x493 - x499  = 0
 c141: x2 - x4 - x6 + x22 - x23 - x25 + x29 - x31 + x38 - x40  = 0
 c142: x52 - x54 - x56 + x72 - x73 - x75 + x79 - x81 + x88 - x90  = 0
 c143: x102 - x104 - x106 + x122 - x123 - x125 + x129 - x131 + x138 - x140  = 0
 c144: x152 - x154 - x156 + x172 - x173 - x175 + x179 - x181 + x188 - x190  = 0
 c145: x202 - x204 - x206 + x222 - x223 - x225 + x229 - x231 + x238 - x240  = 0
 c146: x252 - x254 - x256 + x272 - x273 - x275 + x279 - x281 + x288 - x290  = 0
 c147: x302 - x304 - x306 + x322 - x323 - x325 + x329 - x331 + x338 - x340  = 1
 c148: x352 - x354 - x356 + x372 - x373 - x375 + x379 - x381 + x388 - x390  = 0
 c149: x402 - x404 - x406 + x422 - x423 - x425 + x429 - x431 + x438 - x440  = 0
 c150: x452 - x454 - x456 + x472 - x473 - x475 + x479 - x481 + x488 - x490  = 1
 c151: 4 x1 + 4 x51 + 4 x101 + 4 x151 + 4 x201 + 4 x251 + 4 x301 + 4 x351
       + 4 x401 + 4 x451 - 5 x501 <= 0
 c152: 4 x2 + 4 x52 + 4 x102 + 4 x152 + 4 x202 + 4 x252 + 4 x302 + 4 x352
       + 4 x402 + 4 x452 - 5 x502 <= 0
 c153: 4 x3 + 4 x53 + 4 x103 + 4 x153 + 4 x203 + 4 x253 + 4 x303 + 4 x353
       + 4 x403 + 4 x453 - 5 x503 <= 0
 c154: 4 x4 + 4 x54 + 4 x104 + 4 x154 + 4 x204 + 4 x254 + 4 x304 + 4 x354
       + 4 x404 + 4 x454 - 5 x504 <= 0
 c155: 4 x5 + 4 x55 + 4 x105 + 4 x155 + 4 x205 + 4 x255 + 4 x305 + 4 x355
       + 4 x405 + 4 x455 - 5 x505 <= 0
 c156: 4 x6 + 4 x56 + 4 x106 + 4 x156 + 4 x206 + 4 x256 + 4 x306 + 4 x356
       + 4 x406 + 4 x456 - 5 x506 <= 0
 c157: 4 x7 + 4 x57 + 4 x107 + 4 x157 + 4 x207 + 4 x257 + 4 x307 + 4 x357
       + 4 x407 + 4 x457 - 5 x507 <= 0
 c158: 4 x8 + 4 x58 + 4 x108 + 4 x158 + 4 x208 + 4 x258 + 4 x308 + 4 x358
       + 4 x408 + 4 x458 - 5 x508 <= 0
 c159: 4 x9 + 4 x59 + 4 x109 + 4 x159 + 4 x209 + 4 x259 + 4 x309 + 4 x359
       + 4 x409 + 4 x459 - 5 x509 <= 0
 c160: 4 x10 + 4 x60 + 4 x110 + 4 x160 + 4 x210 + 4 x260 + 4 x310 + 4 x360
       + 4 x410 + 4 x460 - 5 x510 <= 0
 c161: 4 x11 + 4 x61 + 4 x111 + 4 x161 + 4 x211 + 4 x261 + 4 x311 + 4 x361
       + 4 x411 + 4 x461 - 5 x511 <= 0
 c162: 4 x12 + 4 x62 + 4 x112 + 4 x162 + 4 x212 + 4 x262 + 4 x312 + 4 x362
       + 4 x412 + 4 x462 - 5 x512 <= 0
 c163: 4 x13 + 4 x63 + 4 x113 + 4 x163 + 4 x213 + 4 x263 + 4 x313 + 4 x363
       + 4 x413 + 4 x463 - 5 x513 <= 0
 c164: 4 x14 + 4 x64 + 4 x114 + 4 x164 + 4 x214 + 4 x264 + 4 x314 + 4 x364
       + 4 x414 + 4 x464 - 5 x514 <= 0
 c165: 4 x15 + 4 x65 + 4 x115 + 4 x165 + 4 x215 + 4 x265 + 4 x315 + 4 x365
       + 4 x415 + 4 x465 - 5 x515 <= 0
 c166: 4 x16 + 4 x66 + 4 x116 + 4 x166 + 4 x216 + 4 x266 + 4 x316 + 4 x366
       + 4 x416 + 4 x466 - 5 x516 <= 0
 c167: 4 x17 + 4 x67 + 4 x117 + 4 x167 + 4 x217 + 4 x267 + 4 x317 + 4 x367
       + 4 x417 + 4 x467 - 5 x517 <= 0
 c168: 4 x18 + 4 x68 + 4 x118 + 4 x168 + 4 x218 + 4 x268 + 4 x318 + 4 x368
       + 4 x418 + 4 x468 - 5 x518 <= 0
 c169: 4 x19 + 4 x69 + 4 x119 + 4 x169 + 4 x219 + 4 x269 + 4 x319 + 4 x369
       + 4 x419 + 4 x469 - 5 x519 <= 0
 c170: 4 x20 + 4 x70 + 4 x120 + 4 x170 + 4 x220 + 4 x270 + 4 x320 + 4 x370
       + 4 x420 + 4 x470 - 5 x520 <= 0
 c171: 4 x21 + 4 x71 + 4 x121 + 4 x171 + 4 x221 + 4 x271 + 4 x321 + 4 x371
       + 4 x421 + 4 x471 - 5 x521 <= 0
 c172: 4 x22 + 4 x72 + 4 x122 + 4 x172 + 4 x222 + 4 x272 + 4 x322 + 4 x372
       + 4 x422 + 4 x472 - 5 x522 <= 0
 c173: 4 x23 + 4 x73 + 4 x123 + 4 x173 + 4 x223 + 4 x273 + 4 x323 + 4 x373
       + 4 x423 + 4 x473 - 5 x523 <= 0
 c174: 4 x24 + 4 x74 + 4 x124 + 4 x174 + 4 x224 + 4 x274 + 4 x324 + 4 x374
       + 4 x424 + 4 x474 - 5 x524 <= 0
 c175: 4 x25 + 4 x75 + 4 x125 + 4 x175 + 4 x225 + 4 x275 + 4 x325 + 4 x375
       + 4 x425 + 4 x475 - 5 x525 <= 0
 c176: 4 x26 + 4 x76 + 4 x126 + 4 x176 + 4 x226 + 4 x276 + 4 x326 + 4 x376
       + 4 x426 + 4 x476 - 5 x526 <= 0
 c177: 4 x27 + 4 x77 + 4 x127 + 4 x177 + 4 x227 + 4 x277 + 4 x327 + 4 x377
       + 4 x427 + 4 x477 - 5 x527 <= 0
 c178: 4 x28 + 4 x78 + 4 x128 + 4 x178 + 4 x228 + 4 x278 + 4 x328 + 4 x378
       + 4 x428 + 4 x478 - 5 x528 <= 0
 c179: 4 x29 + 4 x79 + 4 x129 + 4 x179 + 4 x229 + 4 x279 + 4 x329 + 4 x379
       + 4 x429 + 4 x479 - 5 x529 <= 0
 c180: 4 x30 + 4 x80 + 4 x130 + 4 x180 + 4 x230 + 4 x280 + 4 x330 + 4 x380
       + 4 x430 + 4 x480 - 5 x530 <= 0
 c181: 4 x31 + 4 x81 + 4 x131 + 4 x181 + 4 x231 + 4 x281 + 4 x331 + 4 x381
       + 4 x431 + 4 x481 - 5 x531 <= 0
 c182: 4 x32 + 4 x82 + 4 x132 + 4 x182 + 4 x232 + 4 x282 + 4 x332 + 4 x382
       + 4 x432 + 4 x482 - 5 x532 <= 0
 c183: 4 x33 + 4 x83 + 4 x133 + 4 x183 + 4 x233 + 4 x283 + 4 x333 + 4 x383
       + 4 x433 + 4 x483 - 5 x533 <= 0
 c184: 4 x34 + 4 x84 + 4 x134 + 4 x184 + 4 x234 + 4 x284 + 4 x334 + 4 x384
       + 4 x434 + 4 x484 - 5 x534 <= 0
 c185: 4 x35 + 4 x85 + 4 x135 + 4 x185 + 4 x235 + 4 x285 + 4 x335 + 4 x385
       + 4 x435 + 4 x485 - 5 x535 <= 0
 c186: 4 x36 + 4 x86 + 4 x136 + 4 x186 + 4 x236 + 4 x286 + 4 x336 + 4 x386
       + 4 x436 + 4 x486 - 5 x536 <= 0
 c187: 4 x37 + 4 x87 + 4 x137 + 4 x187 + 4 x237 + 4 x287 + 4 x337 + 4 x387
       + 4 x437 + 4 x487 - 5 x537 <= 0
 c188: 4 x38 + 4 x88 + 4 x138 + 4 x188 + 4 x238 + 4 x288 + 4 x338 + 4 x388
       + 4 x438 + 4 x488 - 5 x538 <= 0
 c189: 4 x39 + 4 x89 + 4 x139 + 4 x189 + 4 x239 + 4 x289 + 4 x339 + 4 x389
       + 4 x439 + 4 x489 - 5 x539 <= 0
 c190: 4 x40 + 4 x90 + 4 x140 + 4 x190 + 4 x240 + 4 x290 + 4 x340 + 4 x390
       + 4 x440 + 4 x490 - 5 x540 <= 0
 c191: 4 x41 + 4 x91 + 4 x141 + 4 x191 + 4 x241 + 4 x291 + 4 x341 + 4 x391
       + 4 x441 + 4 x491 - 5 x541 <= 0
 c192: 4 x42 + 4 x92 + 4 x142 + 4 x192 + 4 x242 + 4 x292 + 4 x342 + 4 x392
       + 4 x442 + 4 x492 - 5 x542 <= 0
 c193: 4 x43 + 4 x93 + 4 x143 + 4 x193 + 4 x243 + 4 x293 + 4 x343 + 4 x393
       + 4 x443 + 4 x493 - 5 x543 <= 0
 c194: 4 x44 + 4 x94 + 4 x144 + 4 x194 + 4 x244 + 4 x294 + 4 x344 + 4 x394
       + 4 x444 + 4 x494 - 5 x544 <= 0
 c195: 4 x45 + 4 x95 + 4 x145 + 4 x195 + 4 x245 + 4 x295 + 4 x345 + 4 x395
       + 4 x445 + 4 x495 - 5 x545 <= 0
 c196: 4 x46 + 4 x96 + 4 x146 + 4 x196 + 4 x246 + 4 x296 + 4 x346 + 4 x396
       + 4 x446 + 4 x496 - 5 x546 <= 0
 c197: 4 x47 + 4 x97 + 4 x147 + 4 x197 + 4 x247 + 4 x297 + 4 x347 + 4 x397
       + 4 x447 + 4 x497 - 5 x547 <= 0
 c198: 4 x48 + 4 x98 + 4 x148 + 4 x198 + 4 x248 + 4 x298 + 4 x348 + 4 x398
       + 4 x448 + 4 x498 - 5 x548 <= 0
 c199: 4 x49 + 4 x99 + 4 x149 + 4 x199 + 4 x249 + 4 x299 + 4 x349 + 4 x399
       + 4 x449 + 4 x499 - 5 x549 <= 0
 c200: 4 x50 + 4 x100 + 4 x150 + 4 x200 + 4 x250 + 4 x300 + 4 x350 + 4 x400
       + 4 x450 + 4 x500 - 5 x550 <= 0
Bounds
 0 <= x1 <= 1
 0 <= x2 <= 1
 0 <= x3 <= 1
 0 <= x4 <= 1
 0 <= x5 <= 1
 0 <= x6 <= 1
 0 <= x7 <= 1
 0 <= x8 <= 1
 0 <= x9 <= 1
 0 <= x10 <= 1
 0 <= x11 <= 1
 0 <= x12 <= 1
 0 <= x13 <= 1
 0 <= x14 <= 1
 0 <= x15 <= 1
 0 <= x16 <= 1
 0 <= x17 <= 1
 0 <= x18 <= 1
 0 <= x19 <= 1
 0 <= x20 <= 1
 0 <= x21 <= 1
 0 <= x22 <= 1
 0 <= x23 <= 1
 0 <= x24 <= 1
 0 <= x25 <= 1
 0 <= x26 <= 1
 0 <= x27 <= 1
 0 <= x28 <= 1
 0 <= x29 <= 1
 0 <= x30 <= 1
 0 <= x31 <= 1
 0 <= x32 <= 1
 0 <= x33 <= 1
 0 <= x34 <= 1
 0 <= x35 <= 1
 0 <= x36 <= 1
 0 <= x37 <= 1
 0 <= x38 <= 1
 0 <= x39 <= 1
 0 <= x40 <= 1
 0 <= x41 <= 1
 0 <= x42 <= 1
 0 <= x43 <= 1
 0 <= x44 <= 1
 0 <= x45 <= 1
 0 <= x46 <= 1
 0 <= x47 <= 1
 0 <= x48 <= 1
 0 <= x49 <= 1
 0 <= x50 <= 1
 0 <= x51 <= 1
 0 <= x52 <= 1
 0 <= x53 <= 1
 0 <= x54 <= 1
 0 <= x55 <= 1
 0 <= x56 <= 1
 0 <= x57 <= 1
 0 <= x58 <= 1
 0 <= x59 <= 1
 0 <= x60 <= 1
 0 <= x61 <= 1
 0 <= x62 <= 1
 0 <= x63 <= 1
 0 <= x64 <= 1
 0 <= x65 <= 1
 0 <= x66 <= 1
 0 <= x67 <= 1
 0 <= x68 <= 1
 0 <= x69 <= 1
 0 <= x70 <= 1
 0 <= x71 <= 1
 0 <= x72 <= 1
 0 <= x73 <= 1
 0 <= x74 <= 1
 0 <= x75 <= 1
 0 <= x76 <= 1
 0 <= x77 <= 1
 0 <= x78 <= 1
 0 <= x79 <= 1
 0 <= x80 <= 1
 0 <= x81 <= 1
 0 <= x82 <= 1
 0 <= x83 <= 1
 0 <= x84 <= 1
 0 <= x85 <= 1
 0 <= x86 <= 1
 0 <= x87 <= 1
 0 <= x88 <= 1
 0 <= x89 <= 1
 0 <= x90 <= 1
 0 <= x91 <= 1
 0 <= x92 <= 1
 0 <= x93 <= 1
 0 <= x94 <= 1
 0 <= x95 <= 1
 0 <= x96 <= 1
 0 <= x97 <= 1
 0 <= x98 <= 1
 0 <= x99 <= 1
 0 <= x100 <= 1
 0 <= x101 <= 1
 0 <= x102 <= 1
 0 <= x103 <= 1
 0 <= x104 <= 1
 0 <= x105 <= 1
 0 <= x106 <= 1
 0 <= x107 <= 1
 0 <= x108 <= 1
 0 <= x109 <= 1
 0 <= x110 <= 1
 0 <= x111 <= 1
 0 <= x112 <= 1
 0 <= x113 <= 1
 0 <= x114 <= 1
 0 <= x115 <= 1
 0 <= x116 <= 1
 0 <= x117 <= 1
 0 <= x118 <= 1
 0 <= x119 <= 1
 0 <= x120 <= 1
 0 <= x121 <= 1
 0 <= x122 <= 1
 0 <= x123 <= 1
 0 <= x124 <= 1
 0 <= x125 <= 1
 0 <= x126 <= 1
 0 <= x127 <= 1
 0 <= x128 <= 1
 0 <= x129 <= 1
 0 <= x130 <= 1
 0 <= x131 <= 1
 0 <= x132 <= 1
 0 <= x133 <= 1
 0 <= x134 <= 1
 0 <= x135 <= 1
 0 <= x136 <= 1
 0 <= x137 <= 1
 0 <= x138 <= 1
 0 <= x139 <= 1
 0 <= x140 <= 1
 0 <= x141 <= 1
 0 <= x142 <= 1
 0 <= x143 <= 1
 0 <= x144 <= 1
 0 <= x145 <= 1
 0 <= x146 <= 1
 0 <= x147 <= 1
 0 <= x148 <= 1
 0 <= x149 <= 1
 0 <= x150 <= 1
 0 <= x151 <= 1
 0 <= x152 <= 1
 0 <= x153 <= 1
 0 <= x154 <= 1
 0 <= x155 <= 1
 0 <= x156 <= 1
 0 <= x157 <= 1
 0 <= x158 <= 1
 0 <= x159 <= 1
 0 <= x160 <= 1
 0 <= x161 <= 1
 0 <= x162 <= 1
 0 <= x163 <= 1
 0 <= x164 <= 1
 0 <= x165 <= 1
 0 <= x166 <= 1
 0 <= x167 <= 1
 0 <= x168 <= 1
 0 <= x169 <= 1
 0 <= x170 <= 1
 0 <= x171 <= 1
 0 <= x172 <= 1
 0 <= x173 <= 1
 0 <= x174 <= 1
 0 <= x175 <= 1
 0 <= x176 <= 1
 0 <= x177 <= 1
 0 <= x178 <= 1
 0 <= x179 <= 1
 0 <= x180 <= 1
 0 <= x181 <= 1
 0 <= x182 <= 1
 0 <= x183 <= 1
 0 <= x184 <= 1
 0 <= x185 <= 1
 0 <= x186 <= 1
 0 <= x187 <= 1
 0 <= x188 <= 1
 0 <= x189 <= 1
 0 <= x190 <= 1
 0 <= x191 <= 1
 0 <= x192 <= 1
 0 <= x193 <= 1
 0 <= x194 <= 1
 0 <= x195 <= 1
 0 <= x196 <= 1
 0 <= x197 <= 1
 0 <= x198 <= 1
 0 <= x199 <= 1
 0 <= x200 <= 1
 0 <= x201 <= 1
 0 <= x202 <= 1
 0 <= x203 <= 1
 0 <= x204 <= 1
 0 <= x205 <= 1
 0 <= x206 <= 1
 0 <= x207 <= 1
 0 <= x208 <= 1
 0 <= x209 <= 1
 0 <= x210 <= 1
 0 <= x211 <= 1
 0 <= x212 <= 1
 0 <= x213 <= 1
 0 <= x214 <= 1
 0 <= x215 <= 1
 0 <= x216 <= 1
 0 <= x217 <= 1
 0 <= x218 <= 1
 0 <= x219 <= 1
 0 <= x220 <= 1
 0 <= x221 <= 1
 0 <= x222 <= 1
 0 <= x223 <= 1
 0 <= x224 <= 1
 0 <= x225 <= 1
 0 <= x226 <= 1
 0 <= x227 <= 1
 0 <= x228 <= 1
 0 <= x229 <= 1
 0 <= x230 <= 1
 0 <= x231 <= 1
 0 <= x232 <= 1
 0 <= x233 <= 1
 0 <= x234 <= 1
 0 <= x235 <= 1
 0 <= x236 <= 1
 0 <= x237 <= 1
 0 <= x238 <= 1
 0 <= x239 <= 1
 0 <= x240 <= 1
 0 <= x241 <= 1
 0 <= x242 <= 1
 0 <= x243 <= 1
 0 <= x244 <= 1
 0 <= x245 <= 1
 0 <= x246 <= 1
 0 <= x247 <= 1
 0 <= x248 <= 1
 0 <= x249 <= 1
 0 <= x250 <= 1
 0 <= x251 <= 1
 0 <= x252 <= 1
 0 <= x253 <= 1
 0 <= x254 <= 1
 0 <= x255 <= 1
 0 <= x256 <= 1
 0 <= x257 <= 1
 0 <= x258 <= 1
 0 <= x259 <= 1
 0 <= x260 <= 1
 0 <= x261 <= 1
 0 <= x262 <= 1
 0 <= x263 <= 1
 0 <= x264 <= 1
 0 <= x265 <= 1
 0 <= x266 <= 1
 0 <= x267 <= 1
 0 <= x268 <= 1
 0 <= x269 <= 1
 0 <= x270 <= 1
 0 <= x271 <= 1
 0 <= x272 <= 1
 0 <= x273 <= 1
 0 <= x274 <= 1
 0 <= x275 <= 1
 0 <= x276 <= 1
 0 <= x277 <= 1
 0 <= x278 <= 1
 0 <= x279 <= 1
 0 <= x280 <= 1
 0 <= x281 <= 1
 0 <= x282 <= 1
 0 <= x283 <= 1
 0 <= x284 <= 1
 0 <= x285 <= 1
 0 <= x286 <= 1
 0 <= x287 <= 1
 0 <= x288 <= 1
 0 <= x289 <= 1
 0 <= x290 <= 1
 0 <= x291 <= 1
 0 <= x292 <= 1
 0 <= x293 <= 1
 0 <= x294 <= 1
 0 <= x295 <= 1
 0 <= x296 <= 1
 0 <= x297 <= 1
 0 <= x298 <= 1
 0 <= x299 <= 1
 0 <= x300 <= 1
 0 <= x301 <= 1
 0 <= x302 <= 1
 0 <= x303 <= 1
 0 <= x304 <= 1
 0 <= x305 <= 1
 0 <= x306 <= 1
 0 <= x307 <= 1
 0 <= x308 <= 1
 0 <= x309 <= 1
 0 <= x310 <= 1
 0 <= x311 <= 1
 0 <= x312 <= 1
 0 <= x313 <= 1
 0 <= x314 <= 1
 0 <= x315 <= 1
 0 <= x316 <= 1
 0 <= x317 <= 1
 0 <= x318 <= 1
 0 <= x319 <= 1
 0 <= x320 <= 1
 0 <= x321 <= 1
 0 <= x322 <= 1
 0 <= x323 <= 1
 0 <= x324 <= 1
 0 <= x325 <= 1
 0 <= x326 <= 1
 0 <= x327 <= 1
 0 <= x328 <= 1
 0 <= x329 <= 1
 0 <= x330 <= 1
 0 <= x331 <= 1
 0 <= x332 <= 1
 0 <= x333 <= 1
 0 <= x334 <= 1
 0 <= x335 <= 1
 0 <= x336 <= 1
 0 <= x337 <= 1
 0 <= x338 <= 1
 0 <= x339 <= 1
 0 <= x340 <= 1
 0 <= x341 <= 1
 0 <= x342 <= 1
 0 <= x343 <= 1
 0 <= x344 <= 1
 0 <= x345 <= 1
 0 <= x346 <= 1
 0 <= x347 <= 1
 0 <= x348 <= 1
 0 <= x349 <= 1
 0 <= x350 <= 1
 0 <= x351 <= 1
 0 <= x352 <= 1
 0 <= x353 <= 1
 0 <= x354 <= 1
 0 <= x355 <= 1
 0 <= x356 <= 1
 0 <= x357 <= 1
 0 <= x358 <= 1
 0 <= x359 <= 1
 0 <= x360 <= 1
 0 <= x361 <= 1
 0 <= x362 <= 1
 0 <= x363 <= 1
 0 <= x364 <= 1
 0 <= x365 <= 1
 0 <= x366 <= 1
 0 <= x367 <= 1
 0 <= x368 <= 1
 0 <= x369 <= 1
 0 <= x370 <= 1
 0 <= x371 <= 1
 0 <= x372 <= 1
 0 <= x373 <= 1
 0 <= x374 <= 1
 0 <= x375 <= 1
 0 <= x376 <= 1
 0 <= x377 <= 1
 0 <= x378 <= 1
 0 <= x379 <= 1
 0 <= x380 <= 1
 0 <= x381 <= 1
 0 <= x382 <= 1
 0 <= x383 <= 1
 0 <= x384 <= 1
 0 <= x385 <= 1
 0 <= x386 <= 1
 0 <= x387 <= 1
 0 <= x388 <= 1
 0 <= x389 <= 1
 0 <= x390 <= 1
 0 <= x391 <= 1
 0 <= x392 <= 1
 0 <= x393 <= 1
 0 <= x394 <= 1
 0 <= x395 <= 1
 0 <= x396 <= 1
 0 <= x397 <= 1
 0 <= x398 <= 1
 0 <= x399 <= 1
 0 <= x400 <= 1
 0 <= x401 <= 1
 0 <= x402 <= 1
 0 <= x403 <= 1
 0 <= x404 <= 1
 0 <= x405 <= 1
 0 <= x406 <= 1
 0 <= x407 <= 1
 0 <= x408 <= 1
 0 <= x409 <= 1
 0 <= x410 <= 1
 0 <= x411 <= 1
 0 <= x412 <= 1
 0 <= x413 <= 1
 0 <= x414 <= 1
 0 <= x415 <= 1
 0 <= x416 <= 1
 0 <= x417 <= 1
 0 <= x418 <= 1
 0 <= x419 <= 1
 0 <= x420 <= 1
 0 <= x421 <= 1
 0 <= x422 <= 1
 0 <= x423 <= 1
 0 <= x424 <= 1
 0 <= x425 <= 1
 0 <= x426 <= 1
 0 <= x427 <= 1
 0 <= x428 <= 1
 0 <= x429 <= 1
 0 <= x430 <= 1
 0 <= x431 <= 1
 0 <= x432 <= 1
 0 <= x433 <= 1
 0 <= x434 <= 1
 0 <= x435 <= 1
 0 <= x436 <= 1
 0 <= x437 <= 1
 0 <= x438 <= 1
 0 <= x439 <= 1
 0 <= x440 <= 1
 0 <= x441 <= 1
 0 <= x442 <= 1
 0 <= x443 <= 1
 0 <= x444 <= 1
 0 <= x445 <= 1
 0 <= x446 <= 1
 0 <= x447 <= 1
 0 <= x448 <= 1
 0 <= x449 <= 1
 0 <= x450 <= 1
 0 <= x451 <= 1
 0 <= x452 <= 1
 0 <= x453 <= 1
 0 <= x454 <= 1
 0 <= x455 <= 1
 0 <= x456 <= 1
 0 <= x457 <= 1
 0 <= x458 <= 1
 0 <= x459 <= 1
 0 <= x460 <= 1
 0 <= x461 <= 1
 0 <= x462 <= 1
 0 <= x463 <= 1
 0 <= x464 <= 1
 0 <= x465 <= 1
 0 <= x466 <= 1
 0 <= x467 <= 1
 0 <= x468 <= 1
 0 <= x469 <= 1
 0 <= x470 <= 1
 0 <= x471 <= 1
 0 <= x472 <= 1
 0 <= x473 <= 1
 0 <= x474 <= 1
 0 <= x475 <= 1
 0 <= x476 <= 1
 0 <= x477 <= 1
 0 <= x478 <= 1
 0 <= x479 <= 1
 0 <= x480 <= 1
 0 <= x481 <= 1
 0 <= x482 <= 1
 0 <= x483 <= 1
 0 <= x484 <= 1
 0 <= x485 <= 1
 0 <= x486 <= 1
 0 <= x487 <= 1
 0 <= x488 <= 1
 0 <= x489 <= 1
 0 <= x490 <= 1
 0 <= x491 <= 1
 0 <= x492 <= 1
 0 <= x493 <= 1
 0 <= x494 <= 1
 0 <= x495 <= 1
 0 <= x496 <= 1
 0 <= x497 <= 1
 0 <= x498 <= 1
 0 <= x499 <= 1
 0 <= x500 <= 1
 0 <= x501 <= 1
 0 <= x502 <= 1
 0 <= x503 <= 1
 0 <= x504 <= 1
 0 <= x505 <= 1
 0 <= x506 <= 1
 0 <= x507 <= 1
 0 <= x508 <= 1
 0 <= x509 <= 1
 0 <= x510 <= 1
 0 <= x511 <= 1
 0 <= x512 <= 1
 0 <= x513 <= 1
 0 <= x514 <= 1
 0 <= x515 <= 1
 0 <= x516 <= 1
 0 <= x517 <= 1
 0 <= x518 <= 1
 0 <= x519 <= 1
 0 <= x520 <= 1
 0 <= x521 <= 1
 0 <= x522 <= 1
 0 <= x523 <= 1
 0 <= x524 <= 1
 0 <= x525 <= 1
 0 <= x526 <= 1
 0 <= x527 <= 1
 0 <= x528 <= 1
 0 <= x529 <= 1
 0 <= x530 <= 1
 0 <= x531 <= 1
 0 <= x532 <= 1
 0 <= x533 <= 1
 0 <= x534 <= 1
 0 <= x535 <= 1
 0 <= x536 <= 1
 0 <= x537 <= 1
 0 <= x538 <= 1
 0 <= x539 <= 1
 0 <= x540 <= 1
 0 <= x541 <= 1
 0 <= x542 <= 1
 0 <= x543 <= 1
 0 <= x544 <= 1
 0 <= x545 <= 1
 0 <= x546 <= 1
 0 <= x547 <= 1
 0 <= x548 <= 1
 0 <= x549 <= 1
 0 <= x550 <= 1
Binaries
 x501  x502  x503  x504  x505  x506  x507  x508  x509  x510  x511  x512  x513 
 x514  x515  x516  x517  x518  x519  x520  x521  x522  x523  x524  x525  x526 
 x527  x528  x529  x530  x531  x532  x533  x534  x535  x536  x537  x538  x539 
 x540  x541  x542  x543  x544  x545  x546  x547  x548  x549  x550 
End
